
Gurobi 9.5.1 (linux64) logging started Fri Jul  1 01:26:20 2022

Set parameter LogFile to value "../results/logs/log_CA-CondMat_4_250_2022_06_30_22_30.log"
Gurobi Optimizer version 9.5.1 build v9.5.1rc2 (linux64)
Thread count: 8 physical cores, 8 logical processors, using up to 8 threads
Optimize a model with 42700 rows, 46266 columns and 145937 nonzeros
Model fingerprint: 0xb7dfddec
Variable types: 0 continuous, 46266 integer (46266 binary)
Coefficient statistics:
  Matrix range     [1e+00, 4e+00]
  Objective range  [1e+00, 1e+00]
  Bounds range     [1e+00, 1e+00]
  RHS range        [1e+00, 2e+02]
Found heuristic solution: objective 13464.000000
Presolve removed 38839 rows and 43373 columns
Presolve time: 0.10s
Presolved: 3861 rows, 2893 columns, 14875 nonzeros
Variable types: 0 continuous, 2893 integer (2884 binary)
Found heuristic solution: objective 13578.000000

Root relaxation: objective 1.404456e+04, 1219 iterations, 0.01 seconds (0.01 work units)

    Nodes    |    Current Node    |     Objective Bounds      |     Work
 Expl Unexpl |  Obj  Depth IntInf | Incumbent    BestBd   Gap | It/Node Time

     0     0 14044.5580    0  410 13578.0000 14044.5580  3.44%     -    0s
H    0     0                    13871.000000 14044.5580  1.25%     -    0s
H    0     0                    13886.000000 14044.5580  1.14%     -    0s
H    0     0                    13910.000000 14044.5580  0.97%     -    0s
     0     0 13954.6511    0  202 13910.0000 13954.6511  0.32%     -    0s
H    0     0                    13933.000000 13954.6511  0.16%     -    0s
     0     0 13952.7706    0  169 13933.0000 13952.7706  0.14%     -    0s
H    0     0                    13936.000000 13952.7706  0.12%     -    0s
     0     0 13943.2957    0   62 13936.0000 13943.2957  0.05%     -    0s
     0     0 13941.6193    0   58 13936.0000 13941.6193  0.04%     -    0s
H    0     0                    13938.000000 13941.2485  0.02%     -    0s
     0     0 13941.2485    0   56 13938.0000 13941.2485  0.02%     -    0s
     0     0 13941.2482    0   59 13938.0000 13941.2482  0.02%     -    0s
H    0     0                    13939.000000 13941.2482  0.02%     -    0s
     0     0 13940.5333    0   30 13939.0000 13940.5333  0.01%     -    0s
     0     0 13940.1571    0   30 13939.0000 13940.1571  0.01%     -    0s
     0     0 13940.1571    0   31 13939.0000 13940.1571  0.01%     -    0s
     0     0     cutoff    0      13939.0000 13939.0000  0.00%     -    0s

Cutting planes:
  Gomory: 127
  Cover: 33
  Clique: 3
  MIR: 134
  StrongCG: 7
  GUB cover: 238
  Zero half: 52
  Mod-K: 2
  RLT: 35

Explored 1 nodes (2518 simplex iterations) in 0.66 seconds (0.48 work units)
Thread count was 8 (of 8 available processors)

Solution count 9: 13939 13938 13936 ... 13464

Optimal solution found (tolerance 0.00e+00)
Best objective 1.393900000000e+04, best bound 1.393900000000e+04, gap 0.0000%
